Minimize
  - 55 y_0 - 22 y_2 - 31 y_3 - 35 y_4 - 40 y_5 - 14 y_6 - 28 y_7 - 36 y_8
   - 64 y_9 + 325 Constant
Subject To
 c_0: y_5 = 1
 c_1_0: y_0 >= 1
 c_1_1: y_1 + y_6 >= 1
 c_1_2: y_2 + y_3 + y_6 >= 1
 c_1_3: y_2 + y_3 + y_6 + y_8 >= 1
 c_1_4: y_4 + y_7 >= 1
 c_1_5: y_5 >= 1
 c_1_6: y_1 + y_2 + y_3 + y_6 >= 1
 c_1_7: y_4 + y_7 >= 1
 c_1_8: y_3 + y_8 >= 1
 c_1_9: y_9 >= 1
Bounds
 Constant = 1
Binaries
 y_0 y_1 y_2 y_3 y_4 y_5 y_6 y_7 y_8 y_9
End
